Maximize
F 

Subject to
F - 9y171 - 9y45 - 12y151 - 9y68 - 12y83 - 12y46 - 9y38 - 6y152 - 3y159 - 12y64 - 12y79 - 12y109 - 3y59 - 3y133 - 12y130 - 9y11 - 6y94 - 9y191 - 9y84 - 6y104 - 12y110 - 6y44 - 9y76 - 6y103 - 9y111 - 12y40 - 6y173 - 12y93 - 6y86 = 0

x161x110x1 + x161x111x1 + x161x40x1 + x161x93x1 + x161x86x1 
<= 1
x100x191x1 + x100x84x1 + x100x110x1 + x100x111x1 + x100x40x1 + x100x93x1 + x100x86x1 
<= 1
x142x133x1 + x142x130x1 + x142x94x1 + x142x110x1 + x142x111x1 + x142x40x1 + x142x93x1 + x142x86x1 
<= 2

x146x104x2 + x146x103x2 
<= 2
x26x94x2 + x26x103x2 
<= 1
x101x45x3 + x101x151x3 + x101x46x3 + x101x38x3 + x101x159x3 + x101x109x3 + x101x59x3 + x101x11x3 + x101x110x3 + x101x44x3 + x101x76x3 + x101x111x3 + x101x40x3 + x101x173x3 + x101x93x3 
<= 1
x161x110x3 + x161x44x3 + x161x76x3 + x161x111x3 + x161x40x3 + x161x173x3 + x161x93x3 
<= 1
x100x59x3 + x100x11x3 + x100x110x3 + x100x44x3 + x100x76x3 + x100x111x3 + x100x40x3 + x100x173x3 + x100x93x3 
<= 1
x98x45x3 + x98x38x3 + x98x159x3 + x98x109x3 + x98x59x3 + x98x11x3 + x98x110x3 + x98x44x3 + x98x76x3 + x98x111x3 + x98x40x3 + x98x173x3 + x98x93x3 
<= 1
x26x110x3 + x26x44x3 + x26x111x3 + x26x40x3 + x26x173x3 + x26x93x3 
<= 1

- x171x64x1 - x171x133x1 - x171x130x1 - x171x94x1 - x171x84x1 - x171x110x1 - x171x111x1 - x171x40x1 - x171x93x1 - x171x86x1 
= 0





- x45x38x2 - x45x152x2 - x45x59x2 - x45x11x2 - x45x94x2 - x45x191x2 - x45x104x2 - x45x103x2 
= 0
x101x45x3 + x98x45x3 
- x45x0x3
- x45x38x3 - x45x159x3 - x45x59x3 - x45x11x3 - x45x110x3 - x45x44x3 - x45x76x3 - x45x111x3 - x45x40x3 - x45x173x3 - x45x93x3 
= 0


- x151x79x1 - x151x109x1 - x151x133x1 - x151x130x1 - x151x94x1 - x151x191x1 - x151x84x1 - x151x110x1 - x151x111x1 - x151x40x1 - x151x93x1 - x151x86x1 
= 0

x101x151x3 
- x151x0x3
- x151x46x3 - x151x109x3 - x151x59x3 - x151x11x3 - x151x110x3 - x151x44x3 - x151x76x3 - x151x111x3 - x151x40x3 - x151x173x3 - x151x93x3 
= 0


- x68x159x1 - x68x64x1 - x68x133x1 - x68x130x1 - x68x94x1 - x68x191x1 - x68x84x1 - x68x110x1 - x68x111x1 - x68x40x1 - x68x93x1 - x68x86x1 
= 0




- x83x159x1 - x83x64x1 - x83x133x1 - x83x130x1 - x83x94x1 - x83x191x1 - x83x84x1 - x83x110x1 - x83x111x1 - x83x40x1 - x83x93x1 - x83x86x1 
= 0





- x46x79x2 - x46x59x2 - x46x11x2 - x46x191x2 - x46x104x2 - x46x103x2 
= 0
x101x46x3 + x151x46x3 
- x46x0x3
- x46x109x3 - x46x59x3 - x46x11x3 - x46x110x3 - x46x44x3 - x46x76x3 - x46x111x3 - x46x40x3 - x46x173x3 - x46x93x3 
= 0


x45x38x2 
- x38x0x2
- x38x94x2 - x38x191x2 - x38x104x2 - x38x103x2 
= 0
x101x38x3 + x98x38x3 + x45x38x3 
- x38x0x3
- x38x110x3 - x38x44x3 - x38x76x3 - x38x111x3 - x38x40x3 - x38x173x3 - x38x93x3 
= 0


x45x152x2 
- x152x0x2
- x152x94x2 - x152x191x2 - x152x104x2 - x152x103x2 
= 0


x68x159x1 + x83x159x1 
- x159x0x1
- x159x64x1 - x159x133x1 - x159x130x1 - x159x94x1 - x159x110x1 - x159x111x1 - x159x40x1 - x159x93x1 - x159x86x1 
= 0

x101x159x3 + x98x159x3 + x45x159x3 
- x159x0x3
- x159x110x3 - x159x44x3 - x159x111x3 - x159x40x3 - x159x173x3 - x159x93x3 
= 0

x171x64x1 + x68x64x1 + x83x64x1 + x159x64x1 
- x64x0x1
- x64x133x1 - x64x130x1 - x64x94x1 
= 0



x151x79x1 
- x79x0x1
- x79x191x1 - x79x84x1 - x79x110x1 - x79x111x1 - x79x40x1 - x79x93x1 - x79x86x1 
= 0
x46x79x2 
- x79x0x2
- x79x59x2 - x79x11x2 - x79x191x2 - x79x104x2 - x79x103x2 
= 0


x151x109x1 
- x109x0x1
- x109x191x1 - x109x110x1 - x109x111x1 - x109x40x1 - x109x93x1 - x109x86x1 
= 0

x101x109x3 + x98x109x3 + x151x109x3 + x46x109x3 
- x109x0x3
- x109x59x3 - x109x11x3 - x109x110x3 - x109x44x3 - x109x76x3 - x109x111x3 - x109x40x3 - x109x173x3 - x109x93x3 
= 0


x45x59x2 + x46x59x2 + x79x59x2 
- x59x0x2
- x59x11x2 - x59x191x2 - x59x104x2 - x59x103x2 
= 0
x101x59x3 + x100x59x3 + x98x59x3 + x45x59x3 + x151x59x3 + x46x59x3 + x109x59x3 
- x59x0x3
- x59x11x3 - x59x44x3 - x59x76x3 - x59x111x3 - x59x40x3 - x59x173x3 - x59x93x3 
= 0

x142x133x1 + x171x133x1 + x151x133x1 + x68x133x1 + x83x133x1 + x159x133x1 + x64x133x1 
- x133x0x1
- x133x94x1 
= 0



x142x130x1 + x171x130x1 + x151x130x1 + x68x130x1 + x83x130x1 + x159x130x1 + x64x130x1 
- x130x0x1
- x130x94x1 
= 0




x45x11x2 + x46x11x2 + x79x11x2 + x59x11x2 
- x11x0x2
- x11x104x2 
= 0
x101x11x3 + x100x11x3 + x98x11x3 + x45x11x3 + x151x11x3 + x46x11x3 + x109x11x3 + x59x11x3 
- x11x0x3
- x11x76x3 - x11x111x3 - x11x40x3 - x11x173x3 - x11x93x3 
= 0

x142x94x1 + x171x94x1 + x151x94x1 + x68x94x1 + x83x94x1 + x159x94x1 + x64x94x1 + x133x94x1 + x130x94x1 
- x94x0x1

= 0
x26x94x2 + x45x94x2 + x38x94x2 + x152x94x2 
- x94x0x2

= 0


x100x191x1 + x151x191x1 + x68x191x1 + x83x191x1 + x79x191x1 + x109x191x1 
- x191x0x1
- x191x111x1 - x191x40x1 - x191x93x1 - x191x86x1 
= 0
x45x191x2 + x46x191x2 + x38x191x2 + x152x191x2 + x79x191x2 + x59x191x2 
- x191x0x2
- x191x104x2 
= 0


x100x84x1 + x171x84x1 + x151x84x1 + x68x84x1 + x83x84x1 + x79x84x1 
- x84x0x1
- x84x110x1 - x84x111x1 - x84x40x1 - x84x93x1 - x84x86x1 
= 0




x146x104x2 + x45x104x2 + x46x104x2 + x38x104x2 + x152x104x2 + x79x104x2 + x59x104x2 + x11x104x2 + x191x104x2 
- x104x0x2

= 0


x161x110x1 + x100x110x1 + x142x110x1 + x171x110x1 + x151x110x1 + x68x110x1 + x83x110x1 + x159x110x1 + x79x110x1 + x109x110x1 + x84x110x1 
- x110x0x1
- x110x111x1 - x110x40x1 
= 0

x101x110x3 + x161x110x3 + x100x110x3 + x98x110x3 + x26x110x3 + x45x110x3 + x151x110x3 + x46x110x3 + x38x110x3 + x159x110x3 + x109x110x3 
- x110x0x3
- x110x111x3 - x110x40x3 
= 0



x101x44x3 + x161x44x3 + x100x44x3 + x98x44x3 + x26x44x3 + x45x44x3 + x151x44x3 + x46x44x3 + x38x44x3 + x159x44x3 + x109x44x3 + x59x44x3 
- x44x0x3
- x44x111x3 - x44x40x3 
= 0



x101x76x3 + x161x76x3 + x100x76x3 + x98x76x3 + x45x76x3 + x151x76x3 + x46x76x3 + x38x76x3 + x109x76x3 + x59x76x3 + x11x76x3 
- x76x0x3
- x76x173x3 - x76x93x3 
= 0


x146x103x2 + x26x103x2 + x45x103x2 + x46x103x2 + x38x103x2 + x152x103x2 + x79x103x2 + x59x103x2 
- x103x0x2

= 0


x161x111x1 + x100x111x1 + x142x111x1 + x171x111x1 + x151x111x1 + x68x111x1 + x83x111x1 + x159x111x1 + x79x111x1 + x109x111x1 + x191x111x1 + x84x111x1 + x110x111x1 
- x111x0x1
- x111x40x1 
= 0

x101x111x3 + x161x111x3 + x100x111x3 + x98x111x3 + x26x111x3 + x45x111x3 + x151x111x3 + x46x111x3 + x38x111x3 + x159x111x3 + x109x111x3 + x59x111x3 + x11x111x3 + x110x111x3 + x44x111x3 
- x111x0x3
- x111x40x3 
= 0

x161x40x1 + x100x40x1 + x142x40x1 + x171x40x1 + x151x40x1 + x68x40x1 + x83x40x1 + x159x40x1 + x79x40x1 + x109x40x1 + x191x40x1 + x84x40x1 + x110x40x1 + x111x40x1 
- x40x0x1

= 0

x101x40x3 + x161x40x3 + x100x40x3 + x98x40x3 + x26x40x3 + x45x40x3 + x151x40x3 + x46x40x3 + x38x40x3 + x159x40x3 + x109x40x3 + x59x40x3 + x11x40x3 + x110x40x3 + x44x40x3 + x111x40x3 
- x40x0x3

= 0



x101x173x3 + x161x173x3 + x100x173x3 + x98x173x3 + x26x173x3 + x45x173x3 + x151x173x3 + x46x173x3 + x38x173x3 + x159x173x3 + x109x173x3 + x59x173x3 + x11x173x3 + x76x173x3 
- x173x0x3

= 0

x161x93x1 + x100x93x1 + x142x93x1 + x171x93x1 + x151x93x1 + x68x93x1 + x83x93x1 + x159x93x1 + x79x93x1 + x109x93x1 + x191x93x1 + x84x93x1 
- x93x0x1
- x93x86x1 
= 0

x101x93x3 + x161x93x3 + x100x93x3 + x98x93x3 + x26x93x3 + x45x93x3 + x151x93x3 + x46x93x3 + x38x93x3 + x159x93x3 + x109x93x3 + x59x93x3 + x11x93x3 + x76x93x3 
- x93x0x3

= 0

x161x86x1 + x100x86x1 + x142x86x1 + x171x86x1 + x151x86x1 + x68x86x1 + x83x86x1 + x159x86x1 + x79x86x1 + x109x86x1 + x191x86x1 + x84x86x1 + x93x86x1 
- x86x0x1

= 0



2y171 = 0
1y45 = 0
1y45 - x101x45x3 - x98x45x3 = 0
1y151 = 0
1y151 - x101x151x3 = 0
2y68 = 0
2y83 = 0
1y46 = 0
1y46 - x101x46x3 - x151x46x3 = 0
1y38 - x45x38x2 = 0
1y38 - x101x38x3 - x98x38x3 - x45x38x3 = 0
2y152 - x45x152x2 = 0
1y159 - x68x159x1 - x83x159x1 = 0
1y159 - x101x159x3 - x98x159x3 - x45x159x3 = 0
2y64 - x171x64x1 - x68x64x1 - x83x64x1 - x159x64x1 = 0
1y79 - x151x79x1 = 0
1y79 - x46x79x2 = 0
1y109 - x151x109x1 = 0
1y109 - x101x109x3 - x98x109x3 - x151x109x3 - x46x109x3 = 0
1y59 - x45x59x2 - x46x59x2 - x79x59x2 = 0
1y59 - x101x59x3 - x100x59x3 - x98x59x3 - x45x59x3 - x151x59x3 - x46x59x3 - x109x59x3 = 0
2y133 - x142x133x1 - x171x133x1 - x151x133x1 - x68x133x1 - x83x133x1 - x159x133x1 - x64x133x1 = 0
2y130 - x142x130x1 - x171x130x1 - x151x130x1 - x68x130x1 - x83x130x1 - x159x130x1 - x64x130x1 = 0
1y11 - x45x11x2 - x46x11x2 - x79x11x2 - x59x11x2 = 0
1y11 - x101x11x3 - x100x11x3 - x98x11x3 - x45x11x3 - x151x11x3 - x46x11x3 - x109x11x3 - x59x11x3 = 0
1y94 - x142x94x1 - x171x94x1 - x151x94x1 - x68x94x1 - x83x94x1 - x159x94x1 - x64x94x1 - x133x94x1 - x130x94x1 = 0
1y94 - x26x94x2 - x45x94x2 - x38x94x2 - x152x94x2 = 0
1y191 - x100x191x1 - x151x191x1 - x68x191x1 - x83x191x1 - x79x191x1 - x109x191x1 = 0
1y191 - x45x191x2 - x46x191x2 - x38x191x2 - x152x191x2 - x79x191x2 - x59x191x2 = 0
2y84 - x100x84x1 - x171x84x1 - x151x84x1 - x68x84x1 - x83x84x1 - x79x84x1 = 0
2y104 - x146x104x2 - x45x104x2 - x46x104x2 - x38x104x2 - x152x104x2 - x79x104x2 - x59x104x2 - x11x104x2 - x191x104x2 = 0
1y110 - x161x110x1 - x100x110x1 - x142x110x1 - x171x110x1 - x151x110x1 - x68x110x1 - x83x110x1 - x159x110x1 - x79x110x1 - x109x110x1 - x84x110x1 = 0
1y110 - x101x110x3 - x161x110x3 - x100x110x3 - x98x110x3 - x26x110x3 - x45x110x3 - x151x110x3 - x46x110x3 - x38x110x3 - x159x110x3 - x109x110x3 = 0
2y44 - x101x44x3 - x161x44x3 - x100x44x3 - x98x44x3 - x26x44x3 - x45x44x3 - x151x44x3 - x46x44x3 - x38x44x3 - x159x44x3 - x109x44x3 - x59x44x3 = 0
2y76 - x101x76x3 - x161x76x3 - x100x76x3 - x98x76x3 - x45x76x3 - x151x76x3 - x46x76x3 - x38x76x3 - x109x76x3 - x59x76x3 - x11x76x3 = 0
2y103 - x146x103x2 - x26x103x2 - x45x103x2 - x46x103x2 - x38x103x2 - x152x103x2 - x79x103x2 - x59x103x2 = 0
1y111 - x161x111x1 - x100x111x1 - x142x111x1 - x171x111x1 - x151x111x1 - x68x111x1 - x83x111x1 - x159x111x1 - x79x111x1 - x109x111x1 - x191x111x1 - x84x111x1 - x110x111x1 = 0
1y111 - x101x111x3 - x161x111x3 - x100x111x3 - x98x111x3 - x26x111x3 - x45x111x3 - x151x111x3 - x46x111x3 - x38x111x3 - x159x111x3 - x109x111x3 - x59x111x3 - x11x111x3 - x110x111x3 - x44x111x3 = 0
1y40 - x161x40x1 - x100x40x1 - x142x40x1 - x171x40x1 - x151x40x1 - x68x40x1 - x83x40x1 - x159x40x1 - x79x40x1 - x109x40x1 - x191x40x1 - x84x40x1 - x110x40x1 - x111x40x1 = 0
1y40 - x101x40x3 - x161x40x3 - x100x40x3 - x98x40x3 - x26x40x3 - x45x40x3 - x151x40x3 - x46x40x3 - x38x40x3 - x159x40x3 - x109x40x3 - x59x40x3 - x11x40x3 - x110x40x3 - x44x40x3 - x111x40x3 = 0
2y173 - x101x173x3 - x161x173x3 - x100x173x3 - x98x173x3 - x26x173x3 - x45x173x3 - x151x173x3 - x46x173x3 - x38x173x3 - x159x173x3 - x109x173x3 - x59x173x3 - x11x173x3 - x76x173x3 = 0
1y93 - x161x93x1 - x100x93x1 - x142x93x1 - x171x93x1 - x151x93x1 - x68x93x1 - x83x93x1 - x159x93x1 - x79x93x1 - x109x93x1 - x191x93x1 - x84x93x1 = 0
1y93 - x101x93x3 - x161x93x3 - x100x93x3 - x98x93x3 - x26x93x3 - x45x93x3 - x151x93x3 - x46x93x3 - x38x93x3 - x159x93x3 - x109x93x3 - x59x93x3 - x11x93x3 - x76x93x3 = 0
2y86 - x161x86x1 - x100x86x1 - x142x86x1 - x171x86x1 - x151x86x1 - x68x86x1 - x83x86x1 - x159x86x1 - x79x86x1 - x109x86x1 - x191x86x1 - x84x86x1 - x93x86x1 = 0

s101 - s45 + 8.499733z101z45z3 <= 7.09
s101 - s151 + 8.359384z101z151z3 <= 7.09
s101 - s46 + 8.357406z101z46z3 <= 7.09
s101 - s38 + 8.544394z101z38z3 <= 7.09
s101 - s159 + 8.521228z101z159z3 <= 7.09
s101 - s109 + 8.363538z101z109z3 <= 7.09
s101 - s59 + 8.382678z101z59z3 <= 7.09
s101 - s11 + 8.388293z101z11z3 <= 7.09
s101 - s110 + 8.518030z101z110z3 <= 7.09
s101 - s44 + 8.497999z101z44z3 <= 7.09
s101 - s76 + 8.396921z101z76z3 <= 7.09
s101 - s111 + 8.523993z101z111z3 <= 7.09
s101 - s40 + 8.521228z101z40z3 <= 7.09
s101 - s173 + 8.438648z101z173z3 <= 7.09
s101 - s93 + 8.413694z101z93z3 <= 7.09
s146 - s104 + 9.257448z146z104z2 <= 8.13
s146 - s103 + 9.305142z146z103z2 <= 8.13
s161 - s110 + 9.265584z161z110z1 <= 8.08
s161 - s110 + 9.265584z161z110z3 <= 8.08
s161 - s44 + 9.242275z161z44z3 <= 8.08
s161 - s76 + 9.267292z161z76z3 <= 8.08
s161 - s111 + 9.269943z161z111z1 <= 8.08
s161 - s111 + 9.269943z161z111z3 <= 8.08
s161 - s40 + 9.266318z161z40z1 <= 8.08
s161 - s40 + 9.266318z161z40z3 <= 8.08
s161 - s173 + 9.218229z161z173z3 <= 8.08
s161 - s93 + 9.260237z161z93z1 <= 8.08
s161 - s93 + 9.260237z161z93z3 <= 8.08
s161 - s86 + 9.257565z161z86z1 <= 8.08
s100 - s59 + 9.039151z100z59z3 <= 7.94
s100 - s11 + 9.045679z100z11z3 <= 7.94
s100 - s191 + 9.036554z100z191z1 <= 7.94
s100 - s84 + 9.103976z100z84z1 <= 7.94
s100 - s110 + 9.153036z100z110z1 <= 7.94
s100 - s110 + 9.153036z100z110z3 <= 7.94
s100 - s44 + 9.125051z100z44z3 <= 7.94
s100 - s76 + 9.092770z100z76z3 <= 7.94
s100 - s111 + 9.155569z100z111z1 <= 7.94
s100 - s111 + 9.155569z100z111z3 <= 7.94
s100 - s40 + 9.150688z100z40z1 <= 7.94
s100 - s40 + 9.150688z100z40z3 <= 7.94
s100 - s173 + 9.066264z100z173z3 <= 7.94
s100 - s93 + 9.089301z100z93z1 <= 7.94
s100 - s93 + 9.089301z100z93z3 <= 7.94
s100 - s86 + 9.087612z100z86z1 <= 7.94
s98 - s45 + 8.583709z98z45z3 <= 7.48
s98 - s38 + 8.628024z98z38z3 <= 7.48
s98 - s159 + 8.556011z98z159z3 <= 7.48
s98 - s109 + 8.928206z98z109z3 <= 7.48
s98 - s59 + 8.897665z98z59z3 <= 7.48
s98 - s11 + 8.903740z98z11z3 <= 7.48
s98 - s110 + 8.804414z98z110z3 <= 7.48
s98 - s44 + 8.820588z98z44z3 <= 7.48
s98 - s76 + 8.954131z98z76z3 <= 7.48
s98 - s111 + 8.817574z98z111z3 <= 7.48
s98 - s40 + 8.823188z98z40z3 <= 7.48
s98 - s173 + 8.893978z98z173z3 <= 7.48
s98 - s93 + 8.948425z98z93z3 <= 7.48
s26 - s94 + 9.058789z26z94z2 <= 7.91
s26 - s110 + 9.205985z26z110z3 <= 7.91
s26 - s44 + 9.225588z26z44z3 <= 7.91
s26 - s103 + 9.218637z26z103z2 <= 7.91
s26 - s111 + 9.219290z26z111z3 <= 7.91
s26 - s40 + 9.225588z26z40z3 <= 7.91
s26 - s173 + 9.310691z26z173z3 <= 7.91
s26 - s93 + 9.371730z26z93z3 <= 7.91
s142 - s133 + 9.012112z142z133z1 <= 7.91
s142 - s130 + 9.015759z142z130z1 <= 7.91
s142 - s94 + 9.037191z142z94z1 <= 7.91
s142 - s110 + 9.224319z142z110z1 <= 7.91
s142 - s111 + 9.237627z142z111z1 <= 7.91
s142 - s40 + 9.243949z142z40z1 <= 7.91
s142 - s93 + 9.387609z142z93z1 <= 7.91
s142 - s86 + 9.384480z142z86z1 <= 7.91
s171 - s64 + 9.920872z171z64z1 <= 8.57
s171 - s133 + 9.996875z171z133z1 <= 8.57
s171 - s130 + 9.974255z171z130z1 <= 8.57
s171 - s94 + 9.942677z171z94z1 <= 8.57
s171 - s84 + 10.184093z171z84z1 <= 8.57
s171 - s110 + 10.203333z171z110z1 <= 8.57
s171 - s111 + 10.214049z171z111z1 <= 8.57
s171 - s40 + 10.215566z171z40z1 <= 8.57
s171 - s93 + 10.197659z171z93z1 <= 8.57
s171 - s86 + 10.199108z171z86z1 <= 8.57
s45 - s38 + 9.638535z45z38z2 <= 8.59
s45 - s38 + 9.638535z45z38z3 <= 8.59
s45 - s152 + 9.634722z45z152z2 <= 8.59
s45 - s159 + 9.710739z45z159z3 <= 8.59
s45 - s59 + 9.983560z45z59z2 <= 8.59
s45 - s59 + 9.983560z45z59z3 <= 8.59
s45 - s11 + 9.988776z45z11z2 <= 8.59
s45 - s11 + 9.988776z45z11z3 <= 8.59
s45 - s94 + 9.786186z45z94z2 <= 8.59
s45 - s191 + 9.946900z45z191z2 <= 8.59
s45 - s104 + 9.991442z45z104z2 <= 8.59
s45 - s110 + 9.837477z45z110z3 <= 8.59
s45 - s44 + 9.861948z45z44z3 <= 8.59
s45 - s76 + 10.044117z45z76z3 <= 8.59
s45 - s103 + 9.853059z45z103z2 <= 8.59
s45 - s111 + 9.850768z45z111z3 <= 8.59
s45 - s40 + 9.857997z45z40z3 <= 8.59
s45 - s173 + 9.962976z45z173z3 <= 8.59
s45 - s93 + 10.032669z45z93z3 <= 8.59
s151 - s46 + 9.657712z151z46z3 <= 8.62
s151 - s79 + 9.723709z151z79z1 <= 8.62
s151 - s109 + 9.757437z151z109z1 <= 8.62
s151 - s109 + 9.757437z151z109z3 <= 8.62
s151 - s59 + 9.716148z151z59z3 <= 8.62
s151 - s133 + 10.052564z151z133z1 <= 8.62
s151 - s130 + 10.055380z151z130z1 <= 8.62
s151 - s11 + 9.721762z151z11z3 <= 8.62
s151 - s94 + 10.069444z151z94z1 <= 8.62
s151 - s191 + 9.693334z151z191z1 <= 8.62
s151 - s84 + 9.744543z151z84z1 <= 8.62
s151 - s110 + 9.794483z151z110z1 <= 8.62
s151 - s110 + 9.794483z151z110z3 <= 8.62
s151 - s44 + 9.765602z151z44z3 <= 8.62
s151 - s76 + 9.776205z151z76z3 <= 8.62
s151 - s111 + 9.796509z151z111z1 <= 8.62
s151 - s111 + 9.796509z151z111z3 <= 8.62
s151 - s40 + 9.791399z151z40z1 <= 8.62
s151 - s40 + 9.791399z151z40z3 <= 8.62
s151 - s173 + 9.720884z151z173z3 <= 8.62
s151 - s93 + 9.766363z151z93z1 <= 8.62
s151 - s93 + 9.766363z151z93z3 <= 8.62
s151 - s86 + 9.763140z151z86z1 <= 8.62
s68 - s159 + 9.784544z68z159z1 <= 8.66
s68 - s64 + 9.850904z68z64z1 <= 8.66
s68 - s133 + 9.813478z68z133z1 <= 8.66
s68 - s130 + 9.828787z68z130z1 <= 8.66
s68 - s94 + 9.860555z68z94z1 <= 8.66
s68 - s191 + 10.028118z68z191z1 <= 8.66
s68 - s84 + 9.936245z68z84z1 <= 8.66
s68 - s110 + 9.909889z68z110z1 <= 8.66
s68 - s111 + 9.923059z68z111z1 <= 8.66
s68 - s40 + 9.930719z68z40z1 <= 8.66
s68 - s93 + 10.114997z68z93z1 <= 8.66
s68 - s86 + 10.110826z68z86z1 <= 8.66
s83 - s159 + 9.778031z83z159z1 <= 8.70
s83 - s64 + 9.846363z83z64z1 <= 8.70
s83 - s133 + 9.806666z83z133z1 <= 8.70
s83 - s130 + 9.821655z83z130z1 <= 8.70
s83 - s94 + 9.853911z83z94z1 <= 8.70
s83 - s191 + 10.103595z83z191z1 <= 8.70
s83 - s84 + 10.018678z83z84z1 <= 8.70
s83 - s110 + 9.995221z83z110z1 <= 8.70
s83 - s111 + 10.008472z83z111z1 <= 8.70
s83 - s40 + 10.015876z83z40z1 <= 8.70
s83 - s93 + 10.188262z83z93z1 <= 8.70
s83 - s86 + 10.184469z83z86z1 <= 8.70
s46 - s79 + 9.785997z46z79z2 <= 8.72
s46 - s109 + 9.820001z46z109z3 <= 8.72
s46 - s59 + 9.779629z46z59z2 <= 8.72
s46 - s59 + 9.779629z46z59z3 <= 8.72
s46 - s11 + 9.785660z46z11z2 <= 8.72
s46 - s11 + 9.785660z46z11z3 <= 8.72
s46 - s191 + 9.773748z46z191z2 <= 8.72
s46 - s104 + 9.794536z46z104z2 <= 8.72
s46 - s110 + 9.920112z46z110z3 <= 8.72
s46 - s44 + 9.887199z46z44z3 <= 8.72
s46 - s76 + 9.838696z46z76z3 <= 8.72
s46 - s103 + 9.900124z46z103z2 <= 8.72
s46 - s111 + 9.920112z46z111z3 <= 8.72
s46 - s40 + 9.913793z46z40z3 <= 8.72
s46 - s173 + 9.803534z46z173z3 <= 8.72
s46 - s93 + 9.830353z46z93z3 <= 8.72
s38 - s94 + 9.961610z38z94z2 <= 8.74
s38 - s191 + 10.113869z38z191z2 <= 8.74
s38 - s104 + 10.160212z38z104z2 <= 8.74
s38 - s110 + 9.982670z38z110z3 <= 8.74
s38 - s44 + 10.012356z38z44z3 <= 8.74
s38 - s76 + 10.216142z38z76z3 <= 8.74
s38 - s103 + 10.001449z38z103z2 <= 8.74
s38 - s111 + 9.995517z38z111z3 <= 8.74
s38 - s40 + 10.003734z38z40z3 <= 8.74
s38 - s173 + 10.126724z38z173z3 <= 8.74
s38 - s93 + 10.202361z38z93z3 <= 8.74
s152 - s94 + 9.928207z152z94z2 <= 8.74
s152 - s191 + 10.136036z152z191z2 <= 8.74
s152 - s104 + 10.181462z152z104z2 <= 8.74
s152 - s103 + 10.031204z152z103z2 <= 8.74
s159 - s64 + 9.900867z159z64z1 <= 8.83
s159 - s133 + 9.872687z159z133z1 <= 8.83
s159 - s130 + 9.877140z159z130z1 <= 8.83
s159 - s94 + 9.906012z159z94z1 <= 8.83
s159 - s110 + 10.196727z159z110z1 <= 8.83
s159 - s110 + 10.196727z159z110z3 <= 8.83
s159 - s44 + 10.218730z159z44z3 <= 8.83
s159 - s111 + 10.210058z159z111z1 <= 8.83
s159 - s111 + 10.210058z159z111z3 <= 8.83
s159 - s40 + 10.216896z159z40z1 <= 8.83
s159 - s40 + 10.216896z159z40z3 <= 8.83
s159 - s173 + 10.306748z159z173z3 <= 8.83
s159 - s93 + 10.366863z159z93z1 <= 8.83
s159 - s93 + 10.366863z159z93z3 <= 8.83
s159 - s86 + 10.363750z159z86z1 <= 8.83
s64 - s133 + 10.026011z64z133z1 <= 8.95
s64 - s130 + 10.003748z64z130z1 <= 8.95
s64 - s94 + 9.983334z64z94z1 <= 8.95
s79 - s59 + 9.971082z79z59z2 <= 8.95
s79 - s11 + 9.974037z79z11z2 <= 8.95
s79 - s191 + 10.023334z79z191z1 <= 8.95
s79 - s191 + 10.023334z79z191z2 <= 8.95
s79 - s84 + 10.147428z79z84z1 <= 8.95
s79 - s104 + 9.992687z79z104z2 <= 8.95
s79 - s110 + 10.202366z79z110z1 <= 8.95
s79 - s103 + 10.180169z79z103z2 <= 8.95
s79 - s111 + 10.199888z79z111z1 <= 8.95
s79 - s40 + 10.192304z79z40z1 <= 8.95
s79 - s93 + 10.003333z79z93z1 <= 8.95
s79 - s86 + 10.003748z79z86z1 <= 8.95
s109 - s59 + 10.033748z109z59z3 <= 8.98
s109 - s11 + 10.033333z109z11z3 <= 8.98
s109 - s191 + 10.087496z109z191z1 <= 8.98
s109 - s110 + 10.267827z109z110z1 <= 8.98
s109 - s110 + 10.267827z109z110z3 <= 8.98
s109 - s44 + 10.231042z109z44z3 <= 8.98
s109 - s76 + 10.013993z109z76z3 <= 8.98
s109 - s111 + 10.265034z109z111z1 <= 8.98
s109 - s111 + 10.265034z109z111z3 <= 8.98
s109 - s40 + 10.257288z109z40z1 <= 8.98
s109 - s40 + 10.257288z109z40z3 <= 8.98
s109 - s173 + 10.100739z109z173z3 <= 8.98
s109 - s93 + 10.032068z109z93z1 <= 8.98
s109 - s93 + 10.032068z109z93z3 <= 8.98
s109 - s86 + 10.036568z109z86z1 <= 8.98
s59 - s11 + 10.076666z59z11z2 <= 9.07
s59 - s11 + 10.076666z59z11z3 <= 9.07
s59 - s191 + 10.123748z59z191z2 <= 9.07
s59 - s104 + 10.094037z59z104z2 <= 9.07
s59 - s44 + 10.267427z59z44z3 <= 9.07
s59 - s76 + 10.131463z59z76z3 <= 9.07
s59 - s103 + 10.281870z59z103z2 <= 9.07
s59 - s111 + 10.301420z59z111z3 <= 9.07
s59 - s40 + 10.293607z59z40z3 <= 9.07
s59 - s173 + 10.139602z59z173z3 <= 9.07
s59 - s93 + 10.120771z59z93z3 <= 9.07
s133 - s94 + 10.131463z133z94z1 <= 9.07
s130 - s94 + 10.117712z130z94z1 <= 9.08
s11 - s104 + 10.148856z11z104z2 <= 9.13
s11 - s76 + 10.187349z11z76z3 <= 9.13
s11 - s111 + 10.362857z11z111z3 <= 9.13
s11 - s40 + 10.354895z11z40z3 <= 9.13
s11 - s173 + 10.197987z11z173z3 <= 9.13
s11 - s93 + 10.174722z11z93z3 <= 9.13
s191 - s104 + 10.208074z191z104z2 <= 9.16
s191 - s111 + 10.337889z191z111z1 <= 9.16
s191 - s40 + 10.329967z191z40z1 <= 9.16
s191 - s93 + 10.250676z191z93z1 <= 9.16
s191 - s86 + 10.245375z191z86z1 <= 9.16
s84 - s110 + 10.264975z84z110z1 <= 9.21
s84 - s111 + 10.263333z84z111z1 <= 9.21
s84 - s40 + 10.257140z84z40z1 <= 9.21
s84 - s93 + 10.424684z84z93z1 <= 9.21
s84 - s86 + 10.418699z84z86z1 <= 9.21
s110 - s111 + 10.293333z110z111z1 <= 9.28
s110 - s111 + 10.293333z110z111z3 <= 9.28
s110 - s40 + 10.301082z110z40z1 <= 9.28
s110 - s40 + 10.301082z110z40z3 <= 9.28
s44 - s111 + 10.343994z44z111z3 <= 9.31
s44 - s40 + 10.336667z44z40z3 <= 9.31
s76 - s173 + 10.425085z76z173z3 <= 9.31
s76 - s93 + 10.337488z76z93z3 <= 9.31
s111 - s40 + 10.379428z111z40z1 <= 9.37
s111 - s40 + 10.379428z111z40z3 <= 9.37
s93 - s86 + 10.456667z93z86z1 <= 9.45

x101x45x3 - 1z101z45z3 <= 0
x101x151x3 - 1z101z151z3 <= 0
x101x46x3 - 1z101z46z3 <= 0
x101x38x3 - 1z101z38z3 <= 0
x101x159x3 - 1z101z159z3 <= 0
x101x109x3 - 1z101z109z3 <= 0
x101x59x3 - 1z101z59z3 <= 0
x101x11x3 - 1z101z11z3 <= 0
x101x110x3 - 1z101z110z3 <= 0
x101x44x3 - 2z101z44z3 <= 0
x101x76x3 - 2z101z76z3 <= 0
x101x111x3 - 1z101z111z3 <= 0
x101x40x3 - 1z101z40z3 <= 0
x101x173x3 - 2z101z173z3 <= 0
x101x93x3 - 1z101z93z3 <= 0
x146x104x2 - 2z146z104z2 <= 0
x146x103x2 - 2z146z103z2 <= 0
x161x110x1 - 1z161z110z1 <= 0
x161x110x3 - 1z161z110z3 <= 0
x161x44x3 - 2z161z44z3 <= 0
x161x76x3 - 2z161z76z3 <= 0
x161x111x1 - 1z161z111z1 <= 0
x161x111x3 - 1z161z111z3 <= 0
x161x40x1 - 1z161z40z1 <= 0
x161x40x3 - 1z161z40z3 <= 0
x161x173x3 - 2z161z173z3 <= 0
x161x93x1 - 1z161z93z1 <= 0
x161x93x3 - 1z161z93z3 <= 0
x161x86x1 - 2z161z86z1 <= 0
x100x59x3 - 1z100z59z3 <= 0
x100x11x3 - 1z100z11z3 <= 0
x100x191x1 - 1z100z191z1 <= 0
x100x84x1 - 2z100z84z1 <= 0
x100x110x1 - 1z100z110z1 <= 0
x100x110x3 - 1z100z110z3 <= 0
x100x44x3 - 2z100z44z3 <= 0
x100x76x3 - 2z100z76z3 <= 0
x100x111x1 - 1z100z111z1 <= 0
x100x111x3 - 1z100z111z3 <= 0
x100x40x1 - 1z100z40z1 <= 0
x100x40x3 - 1z100z40z3 <= 0
x100x173x3 - 2z100z173z3 <= 0
x100x93x1 - 1z100z93z1 <= 0
x100x93x3 - 1z100z93z3 <= 0
x100x86x1 - 2z100z86z1 <= 0
x98x45x3 - 1z98z45z3 <= 0
x98x38x3 - 1z98z38z3 <= 0
x98x159x3 - 1z98z159z3 <= 0
x98x109x3 - 1z98z109z3 <= 0
x98x59x3 - 1z98z59z3 <= 0
x98x11x3 - 1z98z11z3 <= 0
x98x110x3 - 1z98z110z3 <= 0
x98x44x3 - 2z98z44z3 <= 0
x98x76x3 - 2z98z76z3 <= 0
x98x111x3 - 1z98z111z3 <= 0
x98x40x3 - 1z98z40z3 <= 0
x98x173x3 - 2z98z173z3 <= 0
x98x93x3 - 1z98z93z3 <= 0
x26x94x2 - 1z26z94z2 <= 0
x26x110x3 - 1z26z110z3 <= 0
x26x44x3 - 2z26z44z3 <= 0
x26x103x2 - 2z26z103z2 <= 0
x26x111x3 - 1z26z111z3 <= 0
x26x40x3 - 1z26z40z3 <= 0
x26x173x3 - 2z26z173z3 <= 0
x26x93x3 - 1z26z93z3 <= 0
x142x133x1 - 2z142z133z1 <= 0
x142x130x1 - 2z142z130z1 <= 0
x142x94x1 - 1z142z94z1 <= 0
x142x110x1 - 1z142z110z1 <= 0
x142x111x1 - 1z142z111z1 <= 0
x142x40x1 - 1z142z40z1 <= 0
x142x93x1 - 1z142z93z1 <= 0
x142x86x1 - 2z142z86z1 <= 0
x171x64x1 - 2z171z64z1 <= 0
x171x133x1 - 2z171z133z1 <= 0
x171x130x1 - 2z171z130z1 <= 0
x171x94x1 - 1z171z94z1 <= 0
x171x84x1 - 2z171z84z1 <= 0
x171x110x1 - 1z171z110z1 <= 0
x171x111x1 - 1z171z111z1 <= 0
x171x40x1 - 1z171z40z1 <= 0
x171x93x1 - 1z171z93z1 <= 0
x171x86x1 - 2z171z86z1 <= 0
x171x0x1 <= 2
x45x38x2 - 1z45z38z2 <= 0
x45x38x3 - 1z45z38z3 <= 0
x45x152x2 - 2z45z152z2 <= 0
x45x159x3 - 1z45z159z3 <= 0
x45x59x2 - 1z45z59z2 <= 0
x45x59x3 - 1z45z59z3 <= 0
x45x11x2 - 1z45z11z2 <= 0
x45x11x3 - 1z45z11z3 <= 0
x45x94x2 - 1z45z94z2 <= 0
x45x191x2 - 1z45z191z2 <= 0
x45x104x2 - 2z45z104z2 <= 0
x45x110x3 - 1z45z110z3 <= 0
x45x44x3 - 2z45z44z3 <= 0
x45x76x3 - 2z45z76z3 <= 0
x45x103x2 - 2z45z103z2 <= 0
x45x111x3 - 1z45z111z3 <= 0
x45x40x3 - 1z45z40z3 <= 0
x45x173x3 - 2z45z173z3 <= 0
x45x93x3 - 1z45z93z3 <= 0
x45x0x2 <= 1
x45x0x3 <= 1
x151x46x3 - 1z151z46z3 <= 0
x151x79x1 - 1z151z79z1 <= 0
x151x109x1 - 1z151z109z1 <= 0
x151x109x3 - 1z151z109z3 <= 0
x151x59x3 - 1z151z59z3 <= 0
x151x133x1 - 2z151z133z1 <= 0
x151x130x1 - 2z151z130z1 <= 0
x151x11x3 - 1z151z11z3 <= 0
x151x94x1 - 1z151z94z1 <= 0
x151x191x1 - 1z151z191z1 <= 0
x151x84x1 - 2z151z84z1 <= 0
x151x110x1 - 1z151z110z1 <= 0
x151x110x3 - 1z151z110z3 <= 0
x151x44x3 - 2z151z44z3 <= 0
x151x76x3 - 2z151z76z3 <= 0
x151x111x1 - 1z151z111z1 <= 0
x151x111x3 - 1z151z111z3 <= 0
x151x40x1 - 1z151z40z1 <= 0
x151x40x3 - 1z151z40z3 <= 0
x151x173x3 - 2z151z173z3 <= 0
x151x93x1 - 1z151z93z1 <= 0
x151x93x3 - 1z151z93z3 <= 0
x151x86x1 - 2z151z86z1 <= 0
x151x0x1 <= 1
x151x0x3 <= 1
x68x159x1 - 1z68z159z1 <= 0
x68x64x1 - 2z68z64z1 <= 0
x68x133x1 - 2z68z133z1 <= 0
x68x130x1 - 2z68z130z1 <= 0
x68x94x1 - 1z68z94z1 <= 0
x68x191x1 - 1z68z191z1 <= 0
x68x84x1 - 2z68z84z1 <= 0
x68x110x1 - 1z68z110z1 <= 0
x68x111x1 - 1z68z111z1 <= 0
x68x40x1 - 1z68z40z1 <= 0
x68x93x1 - 1z68z93z1 <= 0
x68x86x1 - 2z68z86z1 <= 0
x68x0x1 <= 2
x83x159x1 - 1z83z159z1 <= 0
x83x64x1 - 2z83z64z1 <= 0
x83x133x1 - 2z83z133z1 <= 0
x83x130x1 - 2z83z130z1 <= 0
x83x94x1 - 1z83z94z1 <= 0
x83x191x1 - 1z83z191z1 <= 0
x83x84x1 - 2z83z84z1 <= 0
x83x110x1 - 1z83z110z1 <= 0
x83x111x1 - 1z83z111z1 <= 0
x83x40x1 - 1z83z40z1 <= 0
x83x93x1 - 1z83z93z1 <= 0
x83x86x1 - 2z83z86z1 <= 0
x83x0x1 <= 2
x46x79x2 - 1z46z79z2 <= 0
x46x109x3 - 1z46z109z3 <= 0
x46x59x2 - 1z46z59z2 <= 0
x46x59x3 - 1z46z59z3 <= 0
x46x11x2 - 1z46z11z2 <= 0
x46x11x3 - 1z46z11z3 <= 0
x46x191x2 - 1z46z191z2 <= 0
x46x104x2 - 2z46z104z2 <= 0
x46x110x3 - 1z46z110z3 <= 0
x46x44x3 - 2z46z44z3 <= 0
x46x76x3 - 2z46z76z3 <= 0
x46x103x2 - 2z46z103z2 <= 0
x46x111x3 - 1z46z111z3 <= 0
x46x40x3 - 1z46z40z3 <= 0
x46x173x3 - 2z46z173z3 <= 0
x46x93x3 - 1z46z93z3 <= 0
x46x0x2 <= 1
x46x0x3 <= 1
x38x94x2 - 1z38z94z2 <= 0
x38x191x2 - 1z38z191z2 <= 0
x38x104x2 - 2z38z104z2 <= 0
x38x110x3 - 1z38z110z3 <= 0
x38x44x3 - 2z38z44z3 <= 0
x38x76x3 - 2z38z76z3 <= 0
x38x103x2 - 2z38z103z2 <= 0
x38x111x3 - 1z38z111z3 <= 0
x38x40x3 - 1z38z40z3 <= 0
x38x173x3 - 2z38z173z3 <= 0
x38x93x3 - 1z38z93z3 <= 0
x38x0x2 <= 1
x38x0x3 <= 1
x152x94x2 - 1z152z94z2 <= 0
x152x191x2 - 1z152z191z2 <= 0
x152x104x2 - 2z152z104z2 <= 0
x152x103x2 - 2z152z103z2 <= 0
x152x0x2 <= 2
x159x64x1 - 2z159z64z1 <= 0
x159x133x1 - 2z159z133z1 <= 0
x159x130x1 - 2z159z130z1 <= 0
x159x94x1 - 1z159z94z1 <= 0
x159x110x1 - 1z159z110z1 <= 0
x159x110x3 - 1z159z110z3 <= 0
x159x44x3 - 2z159z44z3 <= 0
x159x111x1 - 1z159z111z1 <= 0
x159x111x3 - 1z159z111z3 <= 0
x159x40x1 - 1z159z40z1 <= 0
x159x40x3 - 1z159z40z3 <= 0
x159x173x3 - 2z159z173z3 <= 0
x159x93x1 - 1z159z93z1 <= 0
x159x93x3 - 1z159z93z3 <= 0
x159x86x1 - 2z159z86z1 <= 0
x159x0x1 <= 1
x159x0x3 <= 1
x64x133x1 - 2z64z133z1 <= 0
x64x130x1 - 2z64z130z1 <= 0
x64x94x1 - 1z64z94z1 <= 0
x64x0x1 <= 2
x79x59x2 - 1z79z59z2 <= 0
x79x11x2 - 1z79z11z2 <= 0
x79x191x1 - 1z79z191z1 <= 0
x79x191x2 - 1z79z191z2 <= 0
x79x84x1 - 2z79z84z1 <= 0
x79x104x2 - 2z79z104z2 <= 0
x79x110x1 - 1z79z110z1 <= 0
x79x103x2 - 2z79z103z2 <= 0
x79x111x1 - 1z79z111z1 <= 0
x79x40x1 - 1z79z40z1 <= 0
x79x93x1 - 1z79z93z1 <= 0
x79x86x1 - 2z79z86z1 <= 0
x79x0x1 <= 1
x79x0x2 <= 1
x109x59x3 - 1z109z59z3 <= 0
x109x11x3 - 1z109z11z3 <= 0
x109x191x1 - 1z109z191z1 <= 0
x109x110x1 - 1z109z110z1 <= 0
x109x110x3 - 1z109z110z3 <= 0
x109x44x3 - 2z109z44z3 <= 0
x109x76x3 - 2z109z76z3 <= 0
x109x111x1 - 1z109z111z1 <= 0
x109x111x3 - 1z109z111z3 <= 0
x109x40x1 - 1z109z40z1 <= 0
x109x40x3 - 1z109z40z3 <= 0
x109x173x3 - 2z109z173z3 <= 0
x109x93x1 - 1z109z93z1 <= 0
x109x93x3 - 1z109z93z3 <= 0
x109x86x1 - 2z109z86z1 <= 0
x109x0x1 <= 1
x109x0x3 <= 1
x59x11x2 - 1z59z11z2 <= 0
x59x11x3 - 1z59z11z3 <= 0
x59x191x2 - 1z59z191z2 <= 0
x59x104x2 - 2z59z104z2 <= 0
x59x44x3 - 2z59z44z3 <= 0
x59x76x3 - 2z59z76z3 <= 0
x59x103x2 - 2z59z103z2 <= 0
x59x111x3 - 1z59z111z3 <= 0
x59x40x3 - 1z59z40z3 <= 0
x59x173x3 - 2z59z173z3 <= 0
x59x93x3 - 1z59z93z3 <= 0
x59x0x2 <= 1
x59x0x3 <= 1
x133x94x1 - 1z133z94z1 <= 0
x133x0x1 <= 2
x130x94x1 - 1z130z94z1 <= 0
x130x0x1 <= 2
x11x104x2 - 2z11z104z2 <= 0
x11x76x3 - 2z11z76z3 <= 0
x11x111x3 - 1z11z111z3 <= 0
x11x40x3 - 1z11z40z3 <= 0
x11x173x3 - 2z11z173z3 <= 0
x11x93x3 - 1z11z93z3 <= 0
x11x0x2 <= 1
x11x0x3 <= 1
x94x0x1 <= 1
x94x0x2 <= 1
x191x104x2 - 2z191z104z2 <= 0
x191x111x1 - 1z191z111z1 <= 0
x191x40x1 - 1z191z40z1 <= 0
x191x93x1 - 1z191z93z1 <= 0
x191x86x1 - 2z191z86z1 <= 0
x191x0x1 <= 1
x191x0x2 <= 1
x84x110x1 - 1z84z110z1 <= 0
x84x111x1 - 1z84z111z1 <= 0
x84x40x1 - 1z84z40z1 <= 0
x84x93x1 - 1z84z93z1 <= 0
x84x86x1 - 2z84z86z1 <= 0
x84x0x1 <= 2
x104x0x2 <= 2
x110x111x1 - 1z110z111z1 <= 0
x110x111x3 - 1z110z111z3 <= 0
x110x40x1 - 1z110z40z1 <= 0
x110x40x3 - 1z110z40z3 <= 0
x110x0x1 <= 1
x110x0x3 <= 1
x44x111x3 - 1z44z111z3 <= 0
x44x40x3 - 1z44z40z3 <= 0
x44x0x3 <= 2
x76x173x3 - 2z76z173z3 <= 0
x76x93x3 - 1z76z93z3 <= 0
x76x0x3 <= 2
x103x0x2 <= 2
x111x40x1 - 1z111z40z1 <= 0
x111x40x3 - 1z111z40z3 <= 0
x111x0x1 <= 1
x111x0x3 <= 1
x40x0x1 <= 1
x40x0x3 <= 1
x173x0x3 <= 2
x93x86x1 - 2z93z86z1 <= 0
x93x0x1 <= 1
x93x0x3 <= 1
x86x0x1 <= 2

Bounds
s89 = 6.879901
s101 = 7.088664
s29 = 6.858645
s182 = 8.009809
s127 = 8.193518
s145 = 8.177787
s180 = 8.195522
s146 = 8.128005
s161 = 8.084231
s100 = 7.943699
s176 = 8.345442
s98 = 7.480000
s26 = 7.911971
s97 = 8.522163
s142 = 7.910349
7.570000 <= s171 <= 8.570000
7.590000 <= s45 <= 8.590000
7.620000 <= s151 <= 8.620000
7.660000 <= s68 <= 8.660000
7.700000 <= s83 <= 8.700000
7.720000 <= s46 <= 8.720000
7.740000 <= s38 <= 8.740000
7.740000 <= s152 <= 8.740000
7.830000 <= s159 <= 8.830000
7.950000 <= s64 <= 8.950000
7.950000 <= s79 <= 8.950000
7.980000 <= s109 <= 8.980000
8.070000 <= s59 <= 9.070000
8.070000 <= s133 <= 9.070000
8.080000 <= s130 <= 9.080000
8.130000 <= s11 <= 9.130000
8.150000 <= s94 <= 9.150000
8.160000 <= s191 <= 9.160000
8.210000 <= s84 <= 9.210000
8.280000 <= s104 <= 9.280000
8.280000 <= s110 <= 9.280000
8.310000 <= s44 <= 9.310000
8.310000 <= s76 <= 9.310000
8.310000 <= s103 <= 9.310000
8.370000 <= s111 <= 9.370000
8.390000 <= s40 <= 9.390000
8.430000 <= s173 <= 9.430000
8.450000 <= s93 <= 9.450000
8.460000 <= s86 <= 9.460000

General

x101x45x3 x101x151x3 x101x46x3 x101x38x3 x101x159x3 x101x109x3 x101x59x3 x101x11x3 x101x110x3 x101x44x3 x101x76x3 x101x111x3 x101x40x3 x101x173x3 x101x93x3 





x146x104x2 x146x103x2 
x161x110x1 x161x110x3 x161x44x3 x161x76x3 x161x111x1 x161x111x3 x161x40x1 x161x40x3 x161x173x3 x161x93x1 x161x93x3 x161x86x1 
x100x59x3 x100x11x3 x100x191x1 x100x84x1 x100x110x1 x100x110x3 x100x44x3 x100x76x3 x100x111x1 x100x111x3 x100x40x1 x100x40x3 x100x173x3 x100x93x1 x100x93x3 x100x86x1 

x98x45x3 x98x38x3 x98x159x3 x98x109x3 x98x59x3 x98x11x3 x98x110x3 x98x44x3 x98x76x3 x98x111x3 x98x40x3 x98x173x3 x98x93x3 
x26x94x2 x26x110x3 x26x44x3 x26x103x2 x26x111x3 x26x40x3 x26x173x3 x26x93x3 

x142x133x1 x142x130x1 x142x94x1 x142x110x1 x142x111x1 x142x40x1 x142x93x1 x142x86x1 
x171x64x1 x171x133x1 x171x130x1 x171x94x1 x171x84x1 x171x110x1 x171x111x1 x171x40x1 x171x93x1 x171x86x1 x171x0x1 
x45x38x2 x45x38x3 x45x152x2 x45x159x3 x45x59x2 x45x59x3 x45x11x2 x45x11x3 x45x94x2 x45x191x2 x45x104x2 x45x110x3 x45x44x3 x45x76x3 x45x103x2 x45x111x3 x45x40x3 x45x173x3 x45x93x3 x45x0x2 x45x0x3 
x151x46x3 x151x79x1 x151x109x1 x151x109x3 x151x59x3 x151x133x1 x151x130x1 x151x11x3 x151x94x1 x151x191x1 x151x84x1 x151x110x1 x151x110x3 x151x44x3 x151x76x3 x151x111x1 x151x111x3 x151x40x1 x151x40x3 x151x173x3 x151x93x1 x151x93x3 x151x86x1 x151x0x1 x151x0x3 
x68x159x1 x68x64x1 x68x133x1 x68x130x1 x68x94x1 x68x191x1 x68x84x1 x68x110x1 x68x111x1 x68x40x1 x68x93x1 x68x86x1 x68x0x1 
x83x159x1 x83x64x1 x83x133x1 x83x130x1 x83x94x1 x83x191x1 x83x84x1 x83x110x1 x83x111x1 x83x40x1 x83x93x1 x83x86x1 x83x0x1 
x46x79x2 x46x109x3 x46x59x2 x46x59x3 x46x11x2 x46x11x3 x46x191x2 x46x104x2 x46x110x3 x46x44x3 x46x76x3 x46x103x2 x46x111x3 x46x40x3 x46x173x3 x46x93x3 x46x0x2 x46x0x3 
x38x94x2 x38x191x2 x38x104x2 x38x110x3 x38x44x3 x38x76x3 x38x103x2 x38x111x3 x38x40x3 x38x173x3 x38x93x3 x38x0x2 x38x0x3 
x152x94x2 x152x191x2 x152x104x2 x152x103x2 x152x0x2 
x159x64x1 x159x133x1 x159x130x1 x159x94x1 x159x110x1 x159x110x3 x159x44x3 x159x111x1 x159x111x3 x159x40x1 x159x40x3 x159x173x3 x159x93x1 x159x93x3 x159x86x1 x159x0x1 x159x0x3 
x64x133x1 x64x130x1 x64x94x1 x64x0x1 
x79x59x2 x79x11x2 x79x191x1 x79x191x2 x79x84x1 x79x104x2 x79x110x1 x79x103x2 x79x111x1 x79x40x1 x79x93x1 x79x86x1 x79x0x1 x79x0x2 
x109x59x3 x109x11x3 x109x191x1 x109x110x1 x109x110x3 x109x44x3 x109x76x3 x109x111x1 x109x111x3 x109x40x1 x109x40x3 x109x173x3 x109x93x1 x109x93x3 x109x86x1 x109x0x1 x109x0x3 
x59x11x2 x59x11x3 x59x191x2 x59x104x2 x59x44x3 x59x76x3 x59x103x2 x59x111x3 x59x40x3 x59x173x3 x59x93x3 x59x0x2 x59x0x3 
x133x94x1 x133x0x1 
x130x94x1 x130x0x1 
x11x104x2 x11x76x3 x11x111x3 x11x40x3 x11x173x3 x11x93x3 x11x0x2 x11x0x3 
x94x0x1 x94x0x2 
x191x104x2 x191x111x1 x191x40x1 x191x93x1 x191x86x1 x191x0x1 x191x0x2 
x84x110x1 x84x111x1 x84x40x1 x84x93x1 x84x86x1 x84x0x1 
x104x0x2 
x110x111x1 x110x111x3 x110x40x1 x110x40x3 x110x0x1 x110x0x3 
x44x111x3 x44x40x3 x44x0x3 
x76x173x3 x76x93x3 x76x0x3 
x103x0x2 
x111x40x1 x111x40x3 x111x0x1 x111x0x3 
x40x0x1 x40x0x3 
x173x0x3 
x93x86x1 x93x0x1 x93x0x3 
x86x0x1 

Binaries
y171 y45 y151 y68 y83 y46 y38 y152 y159 y64 y79 y109 y59 y133 y130 y11 y94 y191 y84 y104 y110 y44 y76 y103 y111 y40 y173 y93 y86 

z101z45z3 z101z151z3 z101z46z3 z101z38z3 z101z159z3 z101z109z3 z101z59z3 z101z11z3 z101z110z3 z101z44z3 z101z76z3 z101z111z3 z101z40z3 z101z173z3 z101z93z3 





z146z104z2 z146z103z2 
z161z110z1 z161z110z3 z161z44z3 z161z76z3 z161z111z1 z161z111z3 z161z40z1 z161z40z3 z161z173z3 z161z93z1 z161z93z3 z161z86z1 
z100z59z3 z100z11z3 z100z191z1 z100z84z1 z100z110z1 z100z110z3 z100z44z3 z100z76z3 z100z111z1 z100z111z3 z100z40z1 z100z40z3 z100z173z3 z100z93z1 z100z93z3 z100z86z1 

z98z45z3 z98z38z3 z98z159z3 z98z109z3 z98z59z3 z98z11z3 z98z110z3 z98z44z3 z98z76z3 z98z111z3 z98z40z3 z98z173z3 z98z93z3 
z26z94z2 z26z110z3 z26z44z3 z26z103z2 z26z111z3 z26z40z3 z26z173z3 z26z93z3 

z142z133z1 z142z130z1 z142z94z1 z142z110z1 z142z111z1 z142z40z1 z142z93z1 z142z86z1 
z171z64z1 z171z133z1 z171z130z1 z171z94z1 z171z84z1 z171z110z1 z171z111z1 z171z40z1 z171z93z1 z171z86z1 
z45z38z2 z45z38z3 z45z152z2 z45z159z3 z45z59z2 z45z59z3 z45z11z2 z45z11z3 z45z94z2 z45z191z2 z45z104z2 z45z110z3 z45z44z3 z45z76z3 z45z103z2 z45z111z3 z45z40z3 z45z173z3 z45z93z3 
z151z46z3 z151z79z1 z151z109z1 z151z109z3 z151z59z3 z151z133z1 z151z130z1 z151z11z3 z151z94z1 z151z191z1 z151z84z1 z151z110z1 z151z110z3 z151z44z3 z151z76z3 z151z111z1 z151z111z3 z151z40z1 z151z40z3 z151z173z3 z151z93z1 z151z93z3 z151z86z1 
z68z159z1 z68z64z1 z68z133z1 z68z130z1 z68z94z1 z68z191z1 z68z84z1 z68z110z1 z68z111z1 z68z40z1 z68z93z1 z68z86z1 
z83z159z1 z83z64z1 z83z133z1 z83z130z1 z83z94z1 z83z191z1 z83z84z1 z83z110z1 z83z111z1 z83z40z1 z83z93z1 z83z86z1 
z46z79z2 z46z109z3 z46z59z2 z46z59z3 z46z11z2 z46z11z3 z46z191z2 z46z104z2 z46z110z3 z46z44z3 z46z76z3 z46z103z2 z46z111z3 z46z40z3 z46z173z3 z46z93z3 
z38z94z2 z38z191z2 z38z104z2 z38z110z3 z38z44z3 z38z76z3 z38z103z2 z38z111z3 z38z40z3 z38z173z3 z38z93z3 
z152z94z2 z152z191z2 z152z104z2 z152z103z2 
z159z64z1 z159z133z1 z159z130z1 z159z94z1 z159z110z1 z159z110z3 z159z44z3 z159z111z1 z159z111z3 z159z40z1 z159z40z3 z159z173z3 z159z93z1 z159z93z3 z159z86z1 
z64z133z1 z64z130z1 z64z94z1 
z79z59z2 z79z11z2 z79z191z1 z79z191z2 z79z84z1 z79z104z2 z79z110z1 z79z103z2 z79z111z1 z79z40z1 z79z93z1 z79z86z1 
z109z59z3 z109z11z3 z109z191z1 z109z110z1 z109z110z3 z109z44z3 z109z76z3 z109z111z1 z109z111z3 z109z40z1 z109z40z3 z109z173z3 z109z93z1 z109z93z3 z109z86z1 
z59z11z2 z59z11z3 z59z191z2 z59z104z2 z59z44z3 z59z76z3 z59z103z2 z59z111z3 z59z40z3 z59z173z3 z59z93z3 
z133z94z1 
z130z94z1 
z11z104z2 z11z76z3 z11z111z3 z11z40z3 z11z173z3 z11z93z3 

z191z104z2 z191z111z1 z191z40z1 z191z93z1 z191z86z1 
z84z110z1 z84z111z1 z84z40z1 z84z93z1 z84z86z1 

z110z111z1 z110z111z3 z110z40z1 z110z40z3 
z44z111z3 z44z40z3 
z76z173z3 z76z93z3 

z111z40z1 z111z40z3 


z93z86z1 


End